p edge 250 3137
e 1 8
e 1 20
e 1 26
e 1 30
e 1 43
e 1 64
e 1 65
e 1 66
e 1 67
e 1 70
e 1 91
e 1 102
e 1 112
e 1 114
e 1 128
e 1 139
e 1 156
e 1 159
e 1 173
e 1 180
e 1 181
e 1 204
e 1 208
e 1 211
e 1 231
e 1 236
e 1 248
e 2 5
e 2 32
e 2 37
e 2 40
e 2 47
e 2 68
e 2 75
e 2 78
e 2 98
e 2 118
e 2 134
e 2 135
e 2 140
e 2 150
e 2 151
e 2 195
e 2 199
e 2 202
e 2 204
e 2 205
e 2 232
e 2 246
e 3 33
e 3 38
e 3 42
e 3 56
e 3 62
e 3 65
e 3 73
e 3 110
e 3 120
e 3 125
e 3 128
e 3 130
e 3 138
e 3 159
e 3 162
e 3 176
e 3 191
e 3 206
e 3 209
e 3 211
e 3 213
e 3 239
e 3 247
e 4 6
e 4 11
e 4 12
e 4 13
e 4 16
e 4 47
e 4 49
e 4 62
e 4 78
e 4 86
e 4 87
e 4 90
e 4 108
e 4 111
e 4 116
e 4 135
e 4 141
e 4 143
e 4 149
e 4 160
e 4 175
e 4 182
e 4 189
e 4 191
e 4 193
e 4 197
e 4 208
e 4 234
e 4 249
e 5 6
e 5 13
e 5 22
e 5 42
e 5 77
e 5 78
e 5 93
e 5 107
e 5 108
e 5 127
e 5 128
e 5 136
e 5 156
e 5 166
e 5 237
e 5 238
e 5 247
e 6 9
e 6 16
e 6 31
e 6 34
e 6 71
e 6 79
e 6 91
e 6 95
e 6 96
e 6 116
e 6 120
e 6 124
e 6 126
e 6 138
e 6 143
e 6 145
e 6 157
e 6 160
e 6 168
e 6 175
e 6 187
e 6 190
e 6 195
e 6 215
e 7 12
e 7 23
e 7 33
e 7 41
e 7 48
e 7 67
e 7 82
e 7 92
e 7 93
e 7 125
e 7 130
e 7 138
e 7 144
e 7 171
e 7 219
e 7 226
e 7 228
e 7 237
e 7 244
e 8 21
e 8 28
e 8 41
e 8 43
e 8 53
e 8 62
e 8 101
e 8 113
e 8 115
e 8 118
e 8 134
e 8 140
e 8 149
e 8 159
e 8 160
e 8 167
e 8 198
e 8 212
e 8 222
e 8 224
e 8 231
e 8 239
e 8 241
e 9 10
e 9 18
e 9 39
e 9 49
e 9 68
e 9 72
e 9 75
e 9 96
e 9 116
e 9 118
e 9 125
e 9 129
e 9 152
e 9 172
e 9 180
e 9 191
e 9 220
e 9 231
e 9 234
e 9 241
e 9 244
e 9 246
e 10 25
e 10 34
e 10 36
e 10 46
e 10 53
e 10 54
e 10 56
e 10 68
e 10 74
e 10 80
e 10 105
e 10 109
e 10 128
e 10 131
e 10 132
e 10 134
e 10 139
e 10 152
e 10 155
e 10 166
e 10 178
e 10 186
e 10 189
e 10 200
e 10 218
e 10 230
e 10 237
e 10 238
e 11 16
e 11 27
e 11 40
e 11 69
e 11 74
e 11 77
e 11 79
e 11 80
e 11 92
e 11 93
e 11 101
e 11 109
e 11 111
e 11 129
e 11 138
e 11 159
e 11 165
e 11 169
e 11 175
e 11 186
e 11 197
e 11 201
e 11 208
e 11 209
e 11 214
e 11 217
e 12 15
e 12 26
e 12 38
e 12 39
e 12 46
e 12 47
e 12 77
e 12 86
e 12 106
e 12 107
e 12 113
e 12 117
e 12 135
e 12 156
e 12 177
e 12 183
e 12 186
e 12 190
e 12 196
e 12 197
e 12 232
e 13 39
e 13 43
e 13 46
e 13 57
e 13 62
e 13 64
e 13 68
e 13 77
e 13 87
e 13 106
e 13 111
e 13 115
e 13 127
e 13 129
e 13 141
e 13 145
e 13 154
e 13 181
e 13 194
e 13 200
e 13 211
e 13 213
e 13 215
e 13 219
e 13 226
e 13 232
e 14 15
e 14 30
e 14 34
e 14 48
e 14 53
e 14 54
e 14 55
e 14 59
e 14 95
e 14 118
e 14 122
e 14 145
e 14 149
e 14 154
e 14 157
e 14 169
e 14 178
e 14 180
e 14 185
e 14 189
e 14 202
e 14 206
e 14 213
e 14 227
e 14 233
e 15 23
e 15 32
e 15 46
e 15 52
e 15 55
e 15 67
e 15 68
e 15 70
e 15 76
e 15 81
e 15 85
e 15 92
e 15 94
e 15 114
e 15 117
e 15 140
e 15 146
e 15 147
e 15 154
e 15 157
e 15 161
e 15 166
e 15 170
e 15 172
e 15 173
e 15 196
e 15 198
e 15 200
e 15 207
e 15 208
e 15 221
e 15 230
e 15 239
e 15 242
e 16 17
e 16 45
e 16 48
e 16 50
e 16 55
e 16 71
e 16 96
e 16 102
e 16 105
e 16 106
e 16 108
e 16 112
e 16 133
e 16 144
e 16 146
e 16 155
e 16 175
e 16 189
e 16 194
e 16 215
e 16 220
e 16 244
e 16 247
e 17 24
e 17 38
e 17 48
e 17 63
e 17 70
e 17 72
e 17 79
e 17 85
e 17 100
e 17 101
e 17 113
e 17 132
e 17 146
e 17 147
e 17 170
e 17 192
e 17 195
e 17 199
e 17 213
e 17 250
e 18 19
e 18 61
e 18 78
e 18 85
e 18 88
e 18 95
e 18 96
e 18 103
e 18 110
e 18 113
e 18 117
e 18 136
e 18 142
e 18 145
e 18 154
e 18 185
e 18 195
e 18 202
e 18 209
e 19 58
e 19 64
e 19 89
e 19 100
e 19 103
e 19 110
e 19 122
e 19 123
e 19 127
e 19 129
e 19 150
e 19 165
e 19 168
e 19 169
e 19 171
e 19 173
e 19 175
e 19 178
e 19 194
e 19 200
e 19 208
e 19 210
e 19 220
e 19 238
e 19 242
e 20 25
e 20 26
e 20 29
e 20 30
e 20 48
e 20 53
e 20 64
e 20 66
e 20 71
e 20 99
e 20 106
e 20 117
e 20 146
e 20 154
e 20 179
e 20 186
e 20 188
e 20 213
e 20 220
e 20 222
e 20 227
e 21 39
e 21 44
e 21 73
e 21 75
e 21 102
e 21 110
e 21 111
e 21 133
e 21 139
e 21 140
e 21 153
e 21 157
e 21 158
e 21 168
e 21 169
e 21 174
e 21 186
e 21 188
e 21 192
e 21 203
e 21 207
e 21 223
e 21 226
e 21 229
e 21 234
e 21 240
e 22 29
e 22 34
e 22 44
e 22 52
e 22 64
e 22 69
e 22 71
e 22 77
e 22 83
e 22 103
e 22 106
e 22 108
e 22 109
e 22 116
e 22 122
e 22 133
e 22 145
e 22 168
e 22 173
e 22 182
e 22 184
e 22 189
e 22 198
e 22 211
e 22 226
e 22 230
e 22 234
e 23 27
e 23 33
e 23 36
e 23 52
e 23 70
e 23 79
e 23 84
e 23 92
e 23 93
e 23 98
e 23 101
e 23 111
e 23 130
e 23 158
e 23 169
e 23 176
e 23 185
e 23 207
e 23 216
e 23 240
e 24 29
e 24 35
e 24 43
e 24 53
e 24 54
e 24 74
e 24 78
e 24 81
e 24 86
e 24 102
e 24 109
e 24 111
e 24 113
e 24 122
e 24 127
e 24 148
e 24 154
e 24 163
e 24 169
e 24 174
e 24 175
e 24 180
e 24 186
e 24 197
e 24 206
e 24 209
e 24 212
e 24 228
e 24 230
e 24 240
e 24 248
e 25 44
e 25 49
e 25 74
e 25 85
e 25 113
e 25 118
e 25 123
e 25 128
e 25 130
e 25 132
e 25 136
e 25 168
e 25 185
e 25 200
e 25 204
e 25 205
e 25 225
e 25 236
e 25 248
e 26 27
e 26 34
e 26 38
e 26 43
e 26 45
e 26 46
e 26 59
e 26 62
e 26 71
e 26 72
e 26 87
e 26 91
e 26 119
e 26 132
e 26 133
e 26 149
e 26 153
e 26 168
e 26 179
e 26 199
e 26 206
e 26 228
e 26 242
e 27 51
e 27 63
e 27 70
e 27 86
e 27 88
e 27 103
e 27 106
e 27 117
e 27 130
e 27 143
e 27 155
e 27 160
e 27 170
e 27 187
e 27 191
e 27 193
e 27 208
e 27 215
e 27 219
e 27 225
e 27 228
e 27 229
e 27 236
e 27 240
e 27 248
e 28 29
e 28 36
e 28 39
e 28 49
e 28 55
e 28 63
e 28 87
e 28 93
e 28 98
e 28 128
e 28 129
e 28 169
e 28 181
e 28 183
e 28 193
e 28 195
e 28 198
e 28 201
e 28 203
e 28 209
e 28 225
e 28 229
e 28 239
e 28 243
e 29 56
e 29 60
e 29 63
e 29 64
e 29 66
e 29 69
e 29 70
e 29 79
e 29 94
e 29 96
e 29 97
e 29 98
e 29 108
e 29 145
e 29 157
e 29 164
e 29 168
e 29 200
e 29 207
e 29 211
e 29 219
e 29 232
e 29 249
e 30 47
e 30 50
e 30 56
e 30 61
e 30 65
e 30 85
e 30 90
e 30 105
e 30 114
e 30 119
e 30 123
e 30 127
e 30 129
e 30 137
e 30 138
e 30 146
e 30 150
e 30 160
e 30 162
e 30 171
e 30 179
e 30 187
e 30 194
e 30 205
e 30 209
e 30 210
e 30 216
e 30 217
e 30 226
e 30 240
e 31 46
e 31 84
e 31 89
e 31 92
e 31 93
e 31 106
e 31 111
e 31 119
e 31 137
e 31 142
e 31 152
e 31 166
e 31 169
e 31 197
e 31 211
e 31 225
e 31 230
e 31 231
e 31 232
e 31 236
e 31 240
e 32 43
e 32 58
e 32 59
e 32 65
e 32 75
e 32 91
e 32 110
e 32 113
e 32 115
e 32 118
e 32 125
e 32 127
e 32 128
e 32 129
e 32 139
e 32 170
e 32 186
e 32 203
e 32 204
e 32 207
e 32 210
e 32 218
e 32 232
e 32 238
e 32 242
e 33 41
e 33 44
e 33 50
e 33 52
e 33 54
e 33 60
e 33 62
e 33 74
e 33 106
e 33 118
e 33 123
e 33 133
e 33 141
e 33 158
e 33 160
e 33 168
e 33 169
e 33 190
e 33 214
e 33 229
e 33 240
e 34 44
e 34 82
e 34 90
e 34 101
e 34 109
e 34 114
e 34 118
e 34 124
e 34 130
e 34 133
e 34 136
e 34 152
e 34 163
e 34 170
e 34 193
e 34 209
e 34 226
e 34 239
e 34 249
e 34 250
e 35 40
e 35 62
e 35 64
e 35 89
e 35 106
e 35 109
e 35 110
e 35 112
e 35 161
e 35 172
e 35 204
e 35 209
e 35 221
e 35 228
e 35 229
e 35 231
e 36 37
e 36 39
e 36 48
e 36 55
e 36 69
e 36 76
e 36 85
e 36 87
e 36 91
e 36 110
e 36 120
e 36 121
e 36 135
e 36 151
e 36 155
e 36 156
e 36 158
e 36 167
e 36 179
e 36 183
e 36 189
e 36 190
e 36 198
e 36 207
e 36 217
e 36 226
e 36 235
e 36 241
e 36 244
e 37 47
e 37 62
e 37 65
e 37 73
e 37 89
e 37 96
e 37 101
e 37 135
e 37 136
e 37 144
e 37 154
e 37 156
e 37 158
e 37 179
e 37 183
e 37 187
e 37 197
e 37 217
e 37 224
e 37 237
e 37 240
e 38 54
e 38 60
e 38 69
e 38 81
e 38 108
e 38 124
e 38 128
e 38 130
e 38 144
e 38 146
e 38 150
e 38 155
e 38 160
e 38 168
e 38 169
e 38 182
e 38 187
e 38 196
e 38 201
e 38 202
e 38 207
e 38 226
e 38 234
e 38 236
e 38 238
e 39 44
e 39 46
e 39 58
e 39 61
e 39 66
e 39 86
e 39 137
e 39 149
e 39 159
e 39 162
e 39 189
e 39 201
e 39 218
e 39 222
e 39 244
e 40 70
e 40 79
e 40 80
e 40 81
e 40 86
e 40 88
e 40 113
e 40 142
e 40 148
e 40 153
e 40 162
e 40 163
e 40 172
e 40 181
e 40 183
e 40 185
e 40 201
e 40 203
e 40 214
e 40 228
e 40 233
e 40 238
e 41 48
e 41 54
e 41 68
e 41 73
e 41 80
e 41 86
e 41 109
e 41 127
e 41 138
e 41 142
e 41 161
e 41 165
e 41 184
e 41 188
e 41 198
e 41 208
e 41 214
e 41 216
e 41 228
e 41 230
e 41 249
e 42 50
e 42 52
e 42 56
e 42 65
e 42 68
e 42 73
e 42 74
e 42 84
e 42 91
e 42 101
e 42 141
e 42 183
e 42 191
e 42 197
e 42 205
e 42 207
e 42 211
e 42 212
e 42 227
e 42 242
e 42 245
e 42 246
e 42 250
e 43 46
e 43 60
e 43 61
e 43 65
e 43 68
e 43 83
e 43 95
e 43 96
e 43 103
e 43 104
e 43 106
e 43 130
e 43 145
e 43 147
e 43 148
e 43 158
e 43 161
e 43 168
e 43 172
e 43 187
e 43 193
e 43 195
e 43 211
e 43 220
e 43 232
e 44 47
e 44 55
e 44 69
e 44 90
e 44 94
e 44 107
e 44 133
e 44 134
e 44 147
e 44 155
e 44 170
e 44 176
e 44 177
e 44 179
e 44 192
e 44 195
e 44 207
e 44 211
e 44 223
e 44 225
e 44 242
e 44 243
e 45 51
e 45 57
e 45 65
e 45 71
e 45 89
e 45 100
e 45 101
e 45 103
e 45 133
e 45 145
e 45 149
e 45 152
e 45 168
e 45 185
e 45 188
e 45 192
e 45 201
e 45 222
e 45 228
e 46 56
e 46 61
e 46 67
e 46 71
e 46 85
e 46 91
e 46 111
e 46 114
e 46 128
e 46 135
e 46 141
e 46 149
e 46 151
e 46 158
e 46 163
e 46 173
e 46 189
e 46 198
e 46 209
e 46 227
e 47 52
e 47 63
e 47 82
e 47 84
e 47 92
e 47 100
e 47 111
e 47 131
e 47 133
e 47 138
e 47 140
e 47 146
e 47 163
e 47 164
e 47 168
e 47 169
e 47 190
e 47 211
e 47 230
e 47 234
e 47 235
e 47 244
e 48 60
e 48 64
e 48 65
e 48 78
e 48 94
e 48 100
e 48 110
e 48 122
e 48 151
e 48 158
e 48 178
e 48 190
e 48 194
e 48 206
e 48 211
e 48 219
e 49 51
e 49 52
e 49 53
e 49 55
e 49 60
e 49 67
e 49 71
e 49 89
e 49 97
e 49 102
e 49 103
e 49 113
e 49 119
e 49 132
e 49 148
e 49 161
e 49 170
e 49 179
e 49 181
e 49 203
e 49 204
e 49 236
e 49 242
e 50 51
e 50 70
e 50 74
e 50 85
e 50 87
e 50 109
e 50 148
e 50 150
e 50 156
e 50 176
e 50 182
e 50 188
e 50 189
e 50 190
e 50 194
e 50 198
e 50 203
e 50 218
e 50 220
e 50 234
e 50 235
e 50 237
e 50 244
e 50 250
e 51 53
e 51 61
e 51 62
e 51 98
e 51 111
e 51 112
e 51 131
e 51 133
e 51 136
e 51 161
e 51 165
e 51 177
e 51 178
e 51 181
e 51 215
e 51 228
e 51 238
e 51 244
e 52 53
e 52 71
e 52 72
e 52 98
e 52 106
e 52 109
e 52 110
e 52 116
e 52 117
e 52 122
e 52 134
e 52 137
e 52 156
e 52 166
e 52 171
e 52 201
e 52 215
e 52 220
e 52 226
e 52 241
e 53 54
e 53 78
e 53 83
e 53 98
e 53 107
e 53 118
e 53 131
e 53 153
e 53 161
e 53 166
e 53 173
e 53 188
e 53 207
e 53 212
e 53 219
e 53 232
e 53 235
e 54 56
e 54 57
e 54 91
e 54 98
e 54 100
e 54 102
e 54 110
e 54 136
e 54 148
e 54 150
e 54 172
e 54 176
e 54 202
e 54 209
e 54 210
e 54 225
e 54 231
e 54 247
e 54 248
e 55 62
e 55 66
e 55 95
e 55 103
e 55 111
e 55 113
e 55 133
e 55 147
e 55 154
e 55 156
e 55 176
e 55 190
e 55 191
e 55 198
e 55 223
e 55 224
e 55 227
e 55 247
e 56 60
e 56 69
e 56 82
e 56 86
e 56 88
e 56 94
e 56 96
e 56 101
e 56 113
e 56 132
e 56 135
e 56 138
e 56 166
e 56 191
e 56 193
e 56 199
e 56 205
e 56 209
e 56 212
e 56 216
e 56 239
e 57 86
e 57 97
e 57 107
e 57 129
e 57 140
e 57 159
e 57 165
e 57 183
e 57 186
e 57 198
e 57 211
e 57 221
e 57 223
e 57 235
e 57 248
e 58 63
e 58 69
e 58 72
e 58 74
e 58 76
e 58 79
e 58 86
e 58 101
e 58 102
e 58 107
e 58 110
e 58 111
e 58 114
e 58 122
e 58 129
e 58 130
e 58 134
e 58 146
e 58 169
e 58 187
e 58 199
e 58 203
e 58 208
e 59 66
e 59 69
e 59 94
e 59 101
e 59 105
e 59 107
e 59 140
e 59 142
e 59 164
e 59 174
e 59 199
e 59 207
e 59 210
e 59 211
e 59 216
e 59 232
e 59 244
e 59 246
e 59 250
e 60 83
e 60 90
e 60 97
e 60 107
e 60 113
e 60 153
e 60 156
e 60 171
e 60 176
e 60 187
e 60 189
e 60 192
e 60 199
e 60 227
e 60 237
e 60 244
e 61 62
e 61 64
e 61 103
e 61 107
e 61 109
e 61 110
e 61 144
e 61 150
e 61 163
e 61 167
e 61 176
e 61 195
e 61 247
e 62 71
e 62 80
e 62 89
e 62 99
e 62 114
e 62 130
e 62 141
e 62 145
e 62 148
e 62 162
e 62 165
e 62 173
e 62 188
e 62 203
e 62 209
e 62 226
e 63 106
e 63 111
e 63 117
e 63 131
e 63 144
e 63 159
e 63 169
e 63 175
e 63 181
e 63 192
e 63 193
e 63 194
e 63 209
e 63 223
e 63 225
e 63 235
e 63 248
e 64 81
e 64 100
e 64 110
e 64 124
e 64 131
e 64 132
e 64 136
e 64 139
e 64 148
e 64 155
e 64 181
e 64 191
e 64 201
e 64 209
e 64 213
e 64 250
e 65 67
e 65 68
e 65 70
e 65 71
e 65 73
e 65 74
e 65 85
e 65 88
e 65 92
e 65 98
e 65 123
e 65 141
e 65 144
e 65 150
e 65 161
e 65 165
e 65 170
e 65 189
e 65 196
e 65 202
e 65 205
e 65 214
e 65 218
e 65 239
e 66 69
e 66 87
e 66 89
e 66 93
e 66 95
e 66 97
e 66 98
e 66 99
e 66 107
e 66 118
e 66 120
e 66 151
e 66 175
e 66 180
e 66 186
e 66 187
e 66 189
e 66 203
e 66 221
e 67 74
e 67 77
e 67 81
e 67 93
e 67 94
e 67 101
e 67 103
e 67 104
e 67 110
e 67 121
e 67 137
e 67 165
e 67 176
e 67 177
e 67 183
e 67 198
e 67 220
e 67 237
e 68 77
e 68 80
e 68 107
e 68 108
e 68 109
e 68 122
e 68 127
e 68 130
e 68 155
e 68 179
e 68 184
e 68 196
e 68 197
e 68 199
e 68 203
e 68 227
e 68 230
e 69 86
e 69 89
e 69 111
e 69 117
e 69 126
e 69 149
e 69 166
e 69 179
e 69 185
e 69 201
e 69 202
e 69 216
e 69 217
e 69 232
e 69 241
e 69 243
e 70 71
e 70 99
e 70 101
e 70 122
e 70 124
e 70 130
e 70 131
e 70 136
e 70 138
e 70 151
e 70 156
e 70 173
e 70 176
e 70 184
e 70 188
e 70 190
e 70 197
e 70 199
e 70 202
e 70 206
e 70 211
e 70 212
e 70 238
e 70 239
e 70 241
e 70 242
e 71 81
e 71 100
e 71 101
e 71 105
e 71 115
e 71 162
e 71 188
e 71 196
e 71 212
e 71 217
e 71 227
e 71 231
e 71 249
e 71 250
e 72 79
e 72 82
e 72 89
e 72 94
e 72 95
e 72 105
e 72 116
e 72 127
e 72 137
e 72 142
e 72 143
e 72 152
e 72 159
e 72 174
e 72 177
e 72 185
e 72 194
e 72 203
e 72 213
e 72 215
e 72 217
e 72 223
e 72 243
e 72 250
e 73 75
e 73 78
e 73 83
e 73 94
e 73 112
e 73 115
e 73 127
e 73 129
e 73 145
e 73 149
e 73 168
e 73 172
e 73 186
e 73 201
e 73 209
e 73 214
e 73 235
e 73 240
e 73 241
e 73 249
e 74 77
e 74 89
e 74 117
e 74 189
e 74 208
e 74 227
e 74 247
e 75 79
e 75 85
e 75 89
e 75 101
e 75 105
e 75 108
e 75 113
e 75 114
e 75 138
e 75 141
e 75 161
e 75 162
e 75 163
e 75 172
e 75 173
e 75 204
e 75 213
e 75 227
e 75 245
e 76 83
e 76 84
e 76 89
e 76 112
e 76 115
e 76 116
e 76 127
e 76 129
e 76 131
e 76 132
e 76 158
e 76 159
e 76 178
e 76 193
e 76 204
e 76 206
e 76 213
e 76 242
e 77 86
e 77 88
e 77 103
e 77 118
e 77 123
e 77 137
e 77 145
e 77 148
e 77 164
e 77 166
e 77 173
e 77 182
e 77 187
e 77 197
e 77 214
e 77 216
e 77 218
e 77 237
e 77 250
e 78 79
e 78 88
e 78 102
e 78 115
e 78 118
e 78 152
e 78 164
e 78 168
e 78 170
e 78 174
e 78 182
e 78 197
e 78 204
e 78 216
e 78 218
e 78 225
e 78 229
e 78 230
e 78 233
e 78 244
e 78 246
e 79 83
e 79 129
e 79 131
e 79 139
e 79 144
e 79 145
e 79 154
e 79 175
e 79 208
e 79 213
e 79 242
e 80 101
e 80 122
e 80 124
e 80 135
e 80 141
e 80 147
e 80 168
e 80 185
e 80 207
e 80 224
e 80 230
e 80 238
e 80 249
e 81 82
e 81 85
e 81 110
e 81 124
e 81 129
e 81 130
e 81 139
e 81 172
e 81 180
e 81 198
e 81 201
e 81 204
e 81 210
e 81 216
e 81 221
e 81 226
e 81 227
e 81 245
e 82 88
e 82 97
e 82 98
e 82 99
e 82 107
e 82 115
e 82 137
e 82 163
e 82 168
e 82 176
e 82 177
e 82 179
e 82 192
e 82 224
e 82 235
e 82 240
e 82 245
e 82 246
e 83 105
e 83 108
e 83 119
e 83 128
e 83 130
e 83 131
e 83 136
e 83 139
e 83 151
e 83 152
e 83 164
e 83 169
e 83 184
e 83 185
e 83 188
e 83 213
e 83 216
e 83 221
e 83 226
e 83 231
e 83 242
e 83 250
e 84 91
e 84 100
e 84 104
e 84 111
e 84 127
e 84 130
e 84 132
e 84 133
e 84 148
e 84 152
e 84 187
e 84 199
e 84 205
e 84 211
e 84 225
e 84 228
e 84 236
e 84 243
e 85 86
e 85 94
e 85 99
e 85 110
e 85 130
e 85 157
e 85 158
e 85 174
e 85 175
e 85 185
e 85 188
e 85 232
e 85 239
e 85 241
e 86 94
e 86 108
e 86 110
e 86 138
e 86 162
e 86 185
e 86 188
e 86 200
e 86 209
e 87 103
e 87 104
e 87 122
e 87 127
e 87 128
e 87 131
e 87 134
e 87 136
e 87 158
e 87 166
e 87 174
e 87 185
e 87 189
e 87 216
e 87 241
e 87 243
e 88 91
e 88 92
e 88 99
e 88 104
e 88 130
e 88 155
e 88 201
e 88 207
e 88 218
e 88 240
e 89 118
e 89 120
e 89 125
e 89 133
e 89 140
e 89 143
e 89 145
e 89 152
e 89 157
e 89 160
e 89 165
e 89 182
e 89 187
e 89 189
e 89 206
e 89 246
e 89 248
e 90 96
e 90 134
e 90 135
e 90 138
e 90 141
e 90 149
e 90 161
e 90 171
e 90 176
e 90 189
e 90 231
e 90 233
e 90 246
e 91 107
e 91 123
e 91 142
e 91 146
e 91 147
e 91 160
e 91 186
e 91 189
e 91 192
e 91 199
e 91 206
e 91 216
e 91 220
e 91 224
e 91 233
e 91 243
e 91 244
e 92 93
e 92 99
e 92 110
e 92 111
e 92 116
e 92 130
e 92 154
e 92 157
e 92 162
e 92 180
e 92 185
e 92 188
e 92 212
e 92 226
e 92 232
e 92 235
e 93 136
e 93 147
e 93 148
e 93 153
e 93 156
e 93 158
e 93 161
e 93 167
e 93 168
e 93 183
e 93 185
e 93 189
e 93 198
e 93 219
e 93 237
e 93 238
e 93 239
e 94 116
e 94 120
e 94 126
e 94 127
e 94 139
e 94 143
e 94 144
e 94 181
e 94 185
e 94 187
e 94 236
e 94 250
e 95 110
e 95 112
e 95 122
e 95 131
e 95 139
e 95 144
e 95 149
e 95 165
e 95 181
e 95 183
e 95 191
e 95 232
e 95 247
e 95 249
e 96 115
e 96 118
e 96 119
e 96 124
e 96 139
e 96 144
e 96 154
e 96 168
e 96 175
e 96 187
e 96 189
e 96 204
e 96 207
e 96 219
e 96 223
e 96 235
e 96 246
e 97 102
e 97 118
e 97 135
e 97 152
e 97 153
e 97 156
e 97 161
e 97 168
e 97 176
e 97 180
e 97 187
e 97 191
e 97 200
e 97 221
e 97 246
e 97 247
e 98 108
e 98 118
e 98 120
e 98 138
e 98 143
e 98 153
e 98 156
e 98 161
e 98 162
e 98 172
e 98 188
e 98 190
e 98 199
e 98 211
e 98 215
e 98 233
e 98 240
e 99 101
e 99 102
e 99 116
e 99 119
e 99 120
e 99 121
e 99 129
e 99 131
e 99 142
e 99 154
e 99 155
e 99 179
e 99 201
e 99 214
e 99 231
e 99 233
e 99 237
e 99 238
e 99 250
e 100 117
e 100 120
e 100 124
e 100 133
e 100 135
e 100 137
e 100 142
e 100 160
e 100 183
e 100 193
e 100 199
e 100 201
e 100 224
e 100 233
e 101 112
e 101 114
e 101 117
e 101 118
e 101 130
e 101 137
e 101 152
e 101 157
e 101 159
e 101 162
e 101 180
e 101 194
e 101 203
e 101 213
e 101 215
e 101 232
e 101 249
e 101 250
e 102 105
e 102 126
e 102 136
e 102 141
e 102 192
e 102 201
e 102 212
e 102 230
e 102 231
e 102 232
e 102 238
e 103 121
e 103 136
e 103 152
e 103 156
e 103 160
e 103 161
e 103 192
e 103 195
e 103 203
e 103 206
e 103 228
e 103 238
e 103 248
e 103 250
e 104 115
e 104 125
e 104 135
e 104 138
e 104 140
e 104 147
e 104 171
e 104 178
e 104 189
e 104 214
e 104 222
e 104 226
e 104 228
e 104 236
e 104 247
e 105 114
e 105 121
e 105 137
e 105 147
e 105 149
e 105 160
e 105 166
e 105 171
e 105 178
e 105 180
e 105 184
e 105 185
e 105 192
e 105 195
e 105 208
e 105 209
e 105 218
e 105 225
e 106 116
e 106 127
e 106 142
e 106 147
e 106 149
e 106 154
e 106 159
e 106 163
e 106 168
e 106 177
e 106 180
e 106 185
e 106 188
e 106 190
e 106 191
e 106 195
e 106 198
e 106 199
e 106 201
e 106 202
e 106 247
e 107 108
e 107 121
e 107 125
e 107 129
e 107 133
e 107 135
e 107 147
e 107 149
e 107 154
e 107 159
e 107 163
e 107 167
e 107 170
e 107 171
e 107 183
e 107 198
e 107 199
e 107 213
e 107 224
e 107 233
e 107 239
e 108 117
e 108 133
e 108 134
e 108 135
e 108 138
e 108 144
e 108 153
e 108 157
e 108 172
e 108 184
e 108 187
e 108 199
e 108 205
e 108 207
e 108 210
e 108 214
e 108 238
e 109 122
e 109 129
e 109 147
e 109 184
e 109 185
e 109 191
e 109 202
e 109 214
e 109 217
e 109 221
e 109 224
e 109 229
e 109 231
e 109 239
e 109 248
e 110 111
e 110 136
e 110 143
e 110 148
e 110 150
e 110 164
e 110 168
e 110 170
e 110 178
e 110 188
e 110 195
e 110 206
e 110 221
e 110 243
e 111 113
e 111 122
e 111 129
e 111 131
e 111 137
e 111 139
e 111 140
e 111 147
e 111 164
e 111 166
e 111 171
e 111 183
e 111 190
e 111 191
e 111 195
e 111 210
e 111 212
e 111 231
e 111 235
e 111 238
e 112 119
e 112 138
e 112 179
e 112 192
e 112 211
e 112 219
e 112 221
e 112 239
e 112 249
e 113 129
e 113 141
e 113 149
e 113 156
e 113 159
e 113 177
e 113 190
e 113 191
e 113 204
e 113 206
e 113 219
e 113 223
e 113 248
e 114 136
e 114 143
e 114 153
e 114 176
e 114 180
e 114 183
e 114 189
e 114 190
e 114 204
e 114 208
e 114 219
e 114 226
e 114 228
e 114 248
e 115 131
e 115 137
e 115 140
e 115 146
e 115 156
e 115 162
e 115 169
e 115 179
e 115 200
e 115 202
e 115 228
e 115 232
e 115 234
e 116 119
e 116 120
e 116 125
e 116 140
e 116 143
e 116 144
e 116 148
e 116 162
e 116 167
e 116 170
e 116 179
e 116 182
e 116 184
e 116 198
e 116 210
e 116 226
e 116 243
e 116 246
e 117 143
e 117 150
e 117 153
e 117 160
e 117 173
e 117 174
e 117 211
e 117 215
e 117 229
e 117 235
e 117 239
e 117 242
e 117 249
e 118 142
e 118 149
e 118 163
e 118 170
e 118 175
e 118 185
e 118 187
e 118 195
e 118 237
e 118 243
e 119 141
e 119 143
e 119 164
e 119 173
e 119 177
e 119 180
e 119 181
e 119 211
e 119 212
e 119 215
e 119 240
e 120 125
e 120 139
e 120 172
e 120 180
e 120 192
e 120 205
e 120 208
e 120 212
e 120 214
e 120 224
e 120 235
e 120 239
e 120 240
e 120 247
e 121 137
e 121 143
e 121 151
e 121 152
e 121 158
e 121 159
e 121 174
e 121 177
e 121 231
e 121 232
e 121 244
e 121 247
e 122 130
e 122 141
e 122 159
e 122 173
e 122 179
e 122 185
e 122 201
e 122 213
e 122 216
e 122 218
e 122 240
e 123 126
e 123 127
e 123 148
e 123 159
e 123 225
e 123 226
e 124 143
e 124 144
e 124 145
e 124 155
e 124 168
e 124 179
e 124 180
e 124 184
e 124 185
e 124 197
e 124 202
e 124 227
e 124 238
e 124 246
e 124 249
e 125 145
e 125 158
e 125 159
e 125 171
e 125 173
e 125 178
e 125 179
e 125 193
e 125 195
e 125 197
e 125 206
e 125 213
e 125 222
e 125 238
e 125 242
e 126 130
e 126 147
e 126 149
e 126 158
e 126 159
e 126 170
e 126 191
e 126 195
e 127 131
e 127 138
e 127 146
e 127 147
e 127 153
e 127 165
e 127 168
e 127 188
e 127 234
e 127 236
e 127 250
e 128 129
e 128 132
e 128 136
e 128 154
e 128 155
e 128 208
e 128 211
e 128 218
e 128 230
e 128 236
e 128 244
e 129 165
e 129 179
e 129 187
e 129 197
e 129 212
e 129 216
e 129 235
e 129 248
e 130 133
e 130 144
e 130 145
e 130 150
e 130 176
e 130 178
e 130 179
e 130 186
e 130 200
e 130 202
e 130 205
e 130 221
e 131 133
e 131 136
e 131 146
e 131 147
e 131 148
e 131 150
e 131 164
e 131 168
e 131 172
e 131 176
e 131 182
e 131 183
e 131 188
e 131 197
e 131 203
e 131 206
e 131 207
e 131 216
e 131 233
e 131 242
e 131 248
e 132 141
e 132 143
e 132 148
e 132 150
e 132 157
e 132 159
e 132 176
e 132 178
e 132 189
e 132 196
e 132 200
e 132 212
e 132 213
e 132 217
e 132 223
e 132 224
e 133 161
e 133 167
e 133 188
e 133 195
e 133 202
e 133 203
e 133 248
e 134 139
e 134 179
e 134 180
e 134 184
e 134 193
e 134 194
e 134 198
e 134 203
e 134 208
e 134 212
e 134 213
e 134 221
e 134 222
e 134 224
e 134 247
e 135 144
e 135 157
e 135 205
e 135 208
e 135 212
e 135 222
e 136 139
e 136 147
e 136 162
e 136 184
e 136 188
e 136 190
e 136 212
e 136 217
e 136 230
e 136 244
e 137 140
e 137 152
e 137 164
e 137 168
e 137 187
e 137 193
e 137 229
e 137 233
e 137 241
e 138 163
e 138 170
e 138 175
e 138 197
e 138 200
e 138 220
e 138 231
e 138 236
e 138 240
e 139 148
e 139 160
e 139 164
e 139 184
e 139 211
e 139 213
e 139 214
e 139 246
e 139 247
e 140 141
e 140 152
e 140 158
e 140 161
e 140 189
e 140 192
e 140 193
e 140 194
e 140 197
e 140 200
e 140 206
e 140 218
e 140 221
e 140 238
e 140 250
e 141 159
e 141 164
e 141 165
e 141 197
e 141 200
e 141 201
e 141 202
e 141 209
e 141 210
e 141 223
e 142 157
e 142 159
e 142 174
e 142 195
e 142 208
e 142 210
e 142 212
e 142 215
e 142 219
e 142 224
e 142 229
e 143 149
e 143 168
e 143 183
e 143 234
e 143 237
e 144 154
e 144 182
e 144 183
e 144 189
e 144 215
e 144 217
e 144 222
e 144 224
e 144 229
e 144 231
e 144 235
e 144 238
e 144 247
e 145 162
e 145 168
e 145 176
e 145 177
e 145 179
e 145 187
e 145 195
e 145 196
e 145 197
e 145 200
e 145 209
e 145 211
e 145 215
e 145 223
e 145 233
e 145 241
e 146 153
e 146 157
e 146 161
e 146 162
e 146 163
e 146 167
e 146 171
e 146 173
e 146 180
e 146 182
e 146 188
e 146 190
e 146 212
e 146 215
e 146 224
e 146 225
e 147 149
e 147 156
e 147 176
e 147 181
e 147 190
e 147 191
e 147 201
e 147 204
e 147 206
e 147 219
e 147 227
e 147 241
e 147 250
e 148 166
e 148 177
e 148 187
e 148 194
e 148 205
e 148 210
e 148 221
e 148 228
e 148 235
e 148 241
e 148 245
e 149 150
e 149 160
e 149 191
e 149 193
e 149 200
e 149 201
e 149 230
e 149 237
e 149 248
e 150 158
e 150 177
e 150 186
e 150 212
e 150 223
e 150 234
e 150 236
e 150 244
e 151 160
e 151 167
e 151 171
e 151 186
e 151 188
e 151 199
e 151 200
e 151 214
e 151 215
e 151 222
e 151 229
e 151 247
e 151 250
e 152 156
e 152 158
e 152 159
e 152 191
e 152 209
e 152 210
e 152 221
e 152 225
e 152 235
e 153 179
e 153 187
e 153 201
e 153 214
e 153 215
e 153 240
e 153 249
e 154 184
e 154 206
e 154 238
e 154 244
e 154 248
e 155 156
e 155 160
e 155 167
e 155 173
e 155 179
e 155 183
e 155 191
e 155 200
e 155 202
e 155 210
e 155 213
e 155 236
e 156 160
e 156 192
e 156 193
e 156 231
e 156 237
e 157 172
e 157 176
e 157 179
e 157 183
e 157 185
e 157 189
e 157 205
e 157 216
e 157 218
e 157 221
e 157 246
e 157 247
e 158 164
e 158 190
e 158 196
e 158 197
e 158 202
e 158 205
e 158 208
e 158 209
e 158 225
e 158 228
e 158 231
e 158 235
e 158 239
e 158 246
e 159 174
e 159 186
e 159 220
e 159 223
e 159 232
e 159 243
e 160 190
e 160 192
e 160 216
e 160 225
e 160 229
e 160 235
e 160 249
e 161 178
e 161 190
e 161 200
e 161 202
e 161 217
e 161 226
e 161 231
e 161 235
e 161 248
e 161 250
e 162 170
e 162 197
e 162 207
e 162 209
e 162 215
e 162 244
e 163 173
e 163 188
e 163 197
e 163 210
e 163 229
e 163 233
e 163 244
e 164 168
e 164 175
e 164 178
e 164 196
e 164 203
e 164 217
e 164 235
e 164 247
e 165 174
e 165 175
e 165 178
e 165 179
e 165 207
e 165 209
e 165 215
e 165 216
e 165 221
e 165 228
e 165 229
e 165 246
e 165 247
e 166 169
e 166 173
e 166 189
e 166 196
e 166 199
e 166 231
e 166 249
e 167 172
e 167 188
e 167 203
e 167 213
e 167 220
e 167 236
e 167 237
e 167 238
e 167 242
e 168 176
e 168 180
e 168 188
e 168 191
e 168 200
e 168 220
e 168 233
e 168 241
e 168 242
e 169 178
e 169 180
e 169 186
e 169 188
e 169 192
e 169 206
e 169 212
e 169 214
e 169 218
e 169 241
e 170 171
e 170 180
e 170 214
e 170 228
e 170 236
e 170 241
e 171 180
e 171 191
e 171 194
e 171 195
e 171 203
e 171 217
e 171 233
e 171 240
e 171 246
e 171 248
e 172 207
e 172 217
e 172 219
e 172 232
e 172 237
e 172 245
e 173 194
e 173 198
e 173 203
e 173 211
e 173 223
e 173 224
e 173 229
e 173 231
e 173 242
e 174 193
e 174 194
e 174 203
e 174 218
e 174 229
e 175 178
e 175 183
e 175 189
e 175 204
e 175 207
e 175 218
e 175 225
e 175 238
e 176 180
e 176 192
e 176 207
e 176 224
e 176 227
e 176 244
e 177 190
e 177 196
e 177 213
e 177 232
e 177 242
e 177 244
e 178 186
e 178 188
e 178 189
e 178 191
e 178 203
e 178 209
e 178 212
e 178 219
e 178 222
e 178 229
e 178 234
e 179 180
e 179 228
e 179 232
e 179 235
e 179 237
e 180 183
e 180 188
e 180 201
e 180 219
e 180 225
e 180 243
e 180 249
e 181 190
e 181 202
e 181 203
e 181 214
e 181 215
e 181 220
e 181 221
e 181 225
e 181 231
e 181 241
e 182 184
e 182 185
e 182 199
e 182 216
e 182 222
e 182 247
e 183 198
e 183 200
e 183 213
e 183 230
e 183 236
e 183 239
e 183 241
e 184 185
e 184 187
e 184 196
e 184 210
e 184 213
e 184 225
e 184 242
e 185 190
e 185 199
e 185 209
e 185 212
e 185 229
e 185 234
e 185 247
e 186 189
e 186 200
e 186 203
e 186 208
e 186 215
e 186 226
e 186 236
e 186 240
e 187 191
e 187 196
e 187 235
e 187 249
e 188 190
e 188 195
e 188 203
e 188 209
e 188 213
e 188 215
e 188 227
e 188 233
e 188 245
e 188 246
e 188 250
e 189 211
e 189 228
e 189 247
e 190 203
e 190 215
e 190 221
e 190 222
e 190 223
e 190 224
e 190 234
e 190 249
e 191 197
e 191 224
e 191 229
e 191 230
e 191 239
e 191 248
e 192 203
e 192 212
e 192 234
e 193 213
e 193 215
e 193 224
e 193 227
e 193 236
e 193 248
e 193 250
e 194 214
e 194 227
e 194 247
e 195 209
e 195 218
e 195 222
e 195 235
e 195 244
e 196 197
e 196 212
e 196 219
e 196 221
e 196 230
e 196 235
e 196 248
e 197 201
e 197 202
e 197 203
e 197 208
e 197 217
e 197 222
e 197 223
e 197 227
e 197 229
e 197 235
e 198 204
e 198 208
e 198 241
e 198 244
e 198 245
e 199 203
e 199 210
e 199 231
e 200 202
e 200 206
e 200 210
e 200 215
e 200 247
e 201 203
e 201 222
e 201 224
e 201 234
e 201 241
e 201 243
e 201 247
e 202 207
e 202 216
e 202 231
e 202 235
e 202 237
e 202 239
e 203 207
e 203 226
e 203 236
e 203 240
e 203 245
e 203 248
e 204 206
e 204 210
e 205 212
e 205 219
e 205 247
e 205 249
e 206 208
e 206 215
e 206 220
e 206 226
e 206 250
e 207 212
e 207 221
e 207 229
e 207 236
e 208 210
e 208 219
e 208 229
e 208 233
e 208 243
e 208 246
e 208 247
e 208 250
e 209 211
e 209 225
e 209 239
e 210 212
e 210 225
e 210 235
e 210 236
e 210 237
e 210 238
e 210 240
e 210 242
e 210 250
e 211 224
e 211 229
e 211 234
e 211 245
e 211 247
e 212 218
e 213 218
e 213 223
e 213 250
e 214 217
e 214 246
e 215 232
e 215 248
e 215 249
e 216 233
e 217 230
e 217 244
e 218 222
e 218 224
e 218 243
e 218 244
e 218 250
e 219 223
e 219 231
e 219 246
e 220 222
e 220 226
e 220 232
e 220 234
e 221 222
e 222 241
e 222 242
e 223 230
e 223 232
e 223 247
e 224 233
e 224 240
e 225 235
e 225 239
e 225 245
e 226 239
e 226 250
e 227 229
e 228 230
e 228 244
e 228 248
e 229 249
e 229 250
e 230 235
e 230 248
e 231 232
e 231 242
e 231 247
e 231 250
e 232 234
e 232 238
e 233 249
e 234 237
e 234 242
e 236 239
e 237 248
e 238 248
e 238 250
e 239 244
e 239 246
e 239 248
e 240 244
e 240 248
e 241 244
e 241 250
e 243 249
e 244 248
e 244 249
